
%    +---------------+
% 10 | | | | | | | | |
% 9  | | | | | | | | |
% 8  | | | | | | | | |
% 7  | | | | | | | | |
% 6  | |1|1| | | | | |
% 5  | |1|1| | | | | |
% 4  | | | | | | | | |
% 3  | | | | | | |6| |
% 2  | |8| |3| |5|7| |
% 1  | |2| | |4| | | |
%    +---------------+
n=8;
m=10;
h=2;
%maxT=15;
boxNumber=8;
boxSideLen = [2, 1, 1, 1, 1, 1, 1, 1];
boxStartX  = [2, 2, 4, 5, 6, 7, 7, 2];
boxStartY  = [5, 1, 2, 1, 2, 3, 2, 2];
